c b=3,c=641
p cnf 16 32
3 -6 0
1 3 -13 0
3 -15 0
-3 6 0
1 -3 13 0
1 -3 15 0
2 -5 0
2 -12 0
1 2 -14 0
-2 5 0
-2 12 0
1 -2 14 0
1 -4 0
1 -11 0
1 -16 0
-1 3 13 0
2 3 -14 0
-1 -3 -13 0
-1 2 -3 14 0
2 -3 15 0
2 -16 0
-2 3 14 0
3 -16 0
-1 -2 -3 -14 0
-1 -2 -3 16 0
-1 -2 -15 0
-1 4 0
-1 11 0
-7 0
-8 0
-9 0
-10 0
